NAME: cuum350.tsp
TYPE: TSP
COMMENT: User-generated TSP file
DIMENSION: 350
EDGE_WEIGHT_TYPE: EUC_2D
NODE_COORD_SECTION
1 44.0 20.0
2 45.0 296.0
3 153.0 311.0
4 145.0 36.0
5 29.0 74.0
6 307.0 336.0
7 297.0 47.0
8 50.0 183.0
9 77.0 219.0
10 42.0 67.0
11 241.0 152.0
12 24.0 316.0
13 89.0 305.0
14 175.0 12.0
15 233.0 226.0
16 33.0 220.0
17 198.0 94.0
18 9.0 125.0
19 218.0 245.0
20 245.0 229.0
21 260.0 323.0
22 143.0 342.0
23 62.0 8.0
24 53.0 53.0
25 115.0 111.0
26 166.0 61.0
27 107.0 86.0
28 221.0 101.0
29 140.0 226.0
30 311.0 263.0
31 97.0 20.0
32 327.0 280.0
33 103.0 71.0
34 116.0 263.0
35 247.0 161.0
36 309.0 26.0
37 51.0 103.0
38 301.0 116.0
39 124.0 94.0
40 208.0 158.0
41 159.0 54.0
42 262.0 58.0
43 262.0 254.0
44 190.0 165.0
45 55.0 171.0
46 286.0 311.0
47 44.0 26.0
48 48.0 271.0
49 4.0 218.0
50 269.0 313.0
51 244.0 200.0
52 174.0 285.0
53 142.0 67.0
54 205.0 72.0
55 176.0 114.0
56 207.0 251.0
57 181.0 32.0
58 304.0 254.0
59 45.0 79.0
60 278.0 324.0
61 332.0 26.0
62 3.0 37.0
63 6.0 282.0
64 317.0 277.0
65 158.0 345.0
66 204.0 315.0
67 166.0 116.0
68 247.0 286.0
69 89.0 336.0
70 137.0 175.0
71 87.0 84.0
72 280.0 157.0
73 171.0 298.0
74 257.0 230.0
75 305.0 172.0
76 13.0 273.0
77 104.0 318.0
78 148.0 314.0
79 87.0 348.0
80 304.0 223.0
81 318.0 16.0
82 150.0 218.0
83 341.0 350.0
84 279.0 125.0
85 66.0 329.0
86 38.0 41.0
87 130.0 134.0
88 17.0 212.0
89 116.0 321.0
90 305.0 48.0
91 24.0 310.0
92 143.0 314.0
93 146.0 98.0
94 87.0 84.0
95 222.0 177.0
96 89.0 168.0
97 47.0 100.0
98 255.0 172.0
99 124.0 85.0
100 269.0 24.0
101 347.0 194.0
102 137.0 299.0
103 76.0 267.0
104 32.0 323.0
105 318.0 6.0
106 27.0 254.0
107 49.0 30.0
108 156.0 136.0
109 248.0 200.0
110 303.0 345.0
111 342.0 136.0
112 296.0 182.0
113 242.0 224.0
114 15.0 213.0
115 347.0 238.0
116 267.0 63.0
117 170.0 17.0
118 188.0 36.0
119 226.0 75.0
120 237.0 344.0
121 334.0 102.0
122 48.0 155.0
123 108.0 21.0
124 268.0 88.0
125 36.0 295.0
126 152.0 253.0
127 276.0 76.0
128 179.0 184.0
129 236.0 266.0
130 263.0 62.0
131 237.0 213.0
132 147.0 20.0
133 91.0 330.0
134 205.0 115.0
135 319.0 350.0
136 180.0 200.0
137 84.0 81.0
138 232.0 284.0
139 210.0 144.0
140 107.0 120.0
141 21.0 125.0
142 211.0 39.0
143 255.0 134.0
144 349.0 245.0
145 214.0 30.0
146 103.0 116.0
147 346.0 266.0
148 255.0 248.0
149 272.0 265.0
150 48.0 272.0
151 242.0 75.0
152 278.0 186.0
153 323.0 258.0
154 192.0 60.0
155 186.0 261.0
156 153.0 185.0
157 75.0 123.0
158 273.0 12.0
159 330.0 205.0
160 323.0 282.0
161 340.0 307.0
162 54.0 88.0
163 213.0 192.0
164 18.0 245.0
165 32.0 305.0
166 201.0 292.0
167 313.0 300.0
168 318.0 83.0
169 91.0 343.0
170 248.0 344.0
171 167.0 275.0
172 336.0 11.0
173 149.0 109.0
174 141.0 18.0
175 332.0 24.0
176 195.0 239.0
177 17.0 99.0
178 69.0 18.0
179 283.0 139.0
180 67.0 164.0
181 57.0 160.0
182 271.0 187.0
183 207.0 78.0
184 182.0 122.0
185 116.0 348.0
186 38.0 114.0
187 253.0 303.0
188 30.0 83.0
189 107.0 283.0
190 161.0 225.0
191 226.0 124.0
192 48.0 121.0
193 334.0 25.0
194 132.0 251.0
195 340.0 238.0
196 109.0 24.0
197 179.0 127.0
198 148.0 111.0
199 17.0 152.0
200 326.0 317.0
201 282.0 152.0
202 258.0 81.0
203 144.0 6.0
204 36.0 124.0
205 118.0 343.0
206 313.0 116.0
207 138.0 179.0
208 170.0 324.0
209 206.0 313.0
210 59.0 331.0
211 291.0 105.0
212 164.0 300.0
213 30.0 7.0
214 217.0 136.0
215 125.0 42.0
216 290.0 308.0
217 280.0 332.0
218 145.0 260.0
219 197.0 121.0
220 116.0 94.0
221 279.0 46.0
222 62.0 66.0
223 311.0 156.0
224 171.0 238.0
225 254.0 338.0
226 173.0 336.0
227 104.0 223.0
228 287.0 323.0
229 113.0 285.0
230 14.0 55.0
231 209.0 35.0
232 227.0 283.0
233 12.0 8.0
234 74.0 309.0
235 63.0 131.0
236 199.0 242.0
237 33.0 69.0
238 294.0 83.0
239 265.0 164.0
240 148.0 277.0
241 176.0 42.0
242 328.0 112.0
243 168.0 283.0
244 319.0 91.0
245 295.0 63.0
246 248.0 182.0
247 193.0 24.0
248 201.0 263.0
249 284.0 304.0
250 340.0 139.0
251 338.0 82.0
252 9.0 126.0
253 284.0 60.0
254 72.0 340.0
255 36.0 347.0
256 56.0 213.0
257 23.0 247.0
258 257.0 216.0
259 44.0 42.0
260 120.0 43.0
261 112.0 116.0
262 259.0 48.0
263 204.0 294.0
264 103.0 156.0
265 193.0 211.0
266 279.0 126.0
267 97.0 204.0
268 303.0 96.0
269 206.0 203.0
270 297.0 269.0
271 45.0 109.0
272 115.0 194.0
273 274.0 342.0
274 202.0 57.0
275 243.0 36.0
276 149.0 222.0
277 268.0 65.0
278 131.0 221.0
279 179.0 207.0
280 197.0 11.0
281 240.0 78.0
282 92.0 308.0
283 50.0 191.0
284 347.0 15.0
285 116.0 272.0
286 51.0 39.0
287 302.0 331.0
288 7.0 260.0
289 86.0 342.0
290 301.0 143.0
291 278.0 177.0
292 140.0 249.0
293 13.0 201.0
294 104.0 35.0
295 139.0 149.0
296 175.0 257.0
297 25.0 222.0
298 262.0 314.0
299 143.0 347.0
300 193.0 269.0
301 192.0 115.0
302 151.0 46.0
303 285.0 222.0
304 104.0 174.0
305 37.0 330.0
306 7.0 169.0
307 136.0 224.0
308 143.0 292.0
309 294.0 291.0
310 343.0 100.0
311 265.0 44.0
312 4.0 126.0
313 275.0 92.0
314 266.0 152.0
315 333.0 54.0
316 28.0 132.0
317 165.0 119.0
318 118.0 140.0
319 161.0 225.0
320 83.0 167.0
321 297.0 240.0
322 176.0 3.0
323 27.0 218.0
324 273.0 309.0
325 325.0 260.0
326 83.0 226.0
327 185.0 33.0
328 106.0 128.0
329 43.0 252.0
330 328.0 72.0
331 64.0 293.0
332 68.0 83.0
333 213.0 56.0
334 225.0 272.0
335 188.0 194.0
336 151.0 180.0
337 276.0 26.0
338 166.0 163.0
339 24.0 184.0
340 190.0 266.0
341 166.0 110.0
342 176.0 239.0
343 279.0 248.0
344 97.0 210.0
345 114.0 268.0
346 326.0 59.0
347 51.0 320.0
348 38.0 278.0
349 186.0 245.0
350 133.0 34.0
EOF





